p cnf 98 343
-4 -3 0
-4 -3 0
3 4 0
-5 -2 0
-5 -4 0
2 4 5 0
6 -1 0
6 5 0
1 -5 -6 0
-8 -7 0
-8 7 0
6 -8 -9 0
-6 8 -9 0
6 8 9 0
-6 -8 9 0
-11 -10 0
-11 -2 0
10 2 11 0
12 9 0
12 -11 0
-9 11 -12 0
-15 13 0
-15 14 0
-13 -14 15 0
16 4 0
16 15 0
-4 -15 -16 0
-19 -18 0
-19 13 0
18 -13 19 0
17 19 -20 0
-17 -19 -20 0
17 -19 20 0
-17 19 20 0
-21 13 0
-21 -20 0
-13 20 21 0
-22 -16 0
-22 21 0
16 -21 22 0
-23 -12 0
-23 22 0
12 -22 23 0
-5 2 -24 0
5 -2 -24 0
-5 -2 24 0
5 2 24 0
24 5 -25 0
-24 -5 -25 0
24 -5 25 0
-24 5 25 0
26 24 0
26 -2 0
-24 2 -26 0
18 -3 -27 0
-18 3 -27 0
18 3 27 0
-18 -3 27 0
-28 -26 0
-28 27 0
26 -27 28 0
29 -19 0
29 -28 0
19 28 -29 0
30 29 0
30 7 0
-29 -7 -30 0
25 -30 -31 0
-25 30 -31 0
25 30 31 0
-25 -30 31 0
-23 -31 -32 0
23 31 -32 0
-23 31 32 0
23 -31 32 0
-34 -18 0
-34 33 0
18 -33 34 0
-24 -34 -35 0
24 34 -35 0
-24 34 35 0
24 -34 35 0
-15 36 -37 0
15 -36 -37 0
-15 -36 37 0
15 36 37 0
37 -6 -38 0
-37 6 -38 0
37 6 38 0
-37 -6 38 0
39 35 0
39 -38 0
-35 38 -39 0
-41 17 0
-41 -40 0
-17 40 41 0
-43 10 0
-43 -3 0
-10 3 43 0
29 43 -44 0
-29 -43 -44 0
29 -43 44 0
-29 43 44 0
-45 -42 0
-45 -44 0
42 44 45 0
46 3 0
46 -13 0
-3 13 -46 0
47 -46 0
47 -13 0
46 13 -47 0
47 -34 -48 0
-47 34 -48 0
47 34 48 0
-47 -34 48 0
45 48 -49 0
-45 -48 -49 0
45 -48 49 0
-45 48 49 0
-50 41 0
-50 49 0
-41 -49 50 0
-33 -3 -51 0
33 3 -51 0
-33 3 51 0
33 -3 51 0
-14 -51 -52 0
14 51 -52 0
-14 51 52 0
14 -51 52 0
53 52 0
53 11 0
-52 -11 -53 0
-18 53 -54 0
18 -53 -54 0
-18 -53 54 0
18 53 54 0
-55 -50 0
-55 54 0
50 -54 55 0
-56 -39 0
-56 -55 0
39 55 56 0
3 -5 -57 0
-3 5 -57 0
3 5 57 0
-3 -5 57 0
59 -57 0
59 -58 0
57 58 -59 0
60 7 0
60 28 0
-7 -28 -60 0
-17 -3 -61 0
17 3 -61 0
-17 3 61 0
17 -3 61 0
-62 60 0
-62 61 0
-60 -61 62 0
-63 -59 0
-63 -62 0
59 62 63 0
-64 20 0
-64 3 0
-20 -3 64 0
63 -64 -65 0
-63 64 -65 0
63 64 65 0
-63 -64 65 0
66 -59 0
66 14 0
59 -14 -66 0
67 18 0
67 -47 0
-18 47 -67 0
68 -67 0
68 -27 0
67 27 -68 0
24 -68 -69 0
-24 68 -69 0
24 68 69 0
-24 -68 69 0
-66 -69 -70 0
66 69 -70 0
-66 69 70 0
66 -69 70 0
-15 4 -71 0
15 -4 -71 0
-15 -4 71 0
15 4 71 0
-70 71 -72 0
70 -71 -72 0
-70 -71 72 0
70 71 72 0
-65 72 -73 0
65 -72 -73 0
-65 -72 73 0
65 72 73 0
-74 57 0
-74 -68 0
-57 68 74 0
75 -13 0
75 -46 0
13 46 -75 0
76 -74 0
76 75 0
74 -75 -76 0
-73 76 -77 0
73 -76 -77 0
-73 -76 77 0
73 76 77 0
56 77 -78 0
-56 -77 -78 0
56 -77 78 0
-56 77 78 0
79 -32 0
79 -78 0
32 78 -79 0
5 -40 -80 0
-5 40 -80 0
5 40 80 0
-5 -40 80 0
-81 -80 0
-81 3 0
80 -3 81 0
82 52 0
82 -28 0
-52 28 -82 0
83 -81 0
83 -82 0
81 82 -83 0
61 -13 -84 0
-61 13 -84 0
61 13 84 0
-61 -13 84 0
-85 8 0
-85 43 0
-8 -43 85 0
-86 84 0
-86 85 0
-84 -85 86 0
-8 33 -87 0
8 -33 -87 0
-8 -33 87 0
8 33 87 0
88 86 0
88 -87 0
-86 87 -88 0
-89 18 0
-89 62 0
-18 -62 89 0
-43 52 -90 0
43 -52 -90 0
-43 -52 90 0
43 52 90 0
91 -90 0
91 80 0
90 -80 -91 0
-92 -28 0
-92 5 0
28 -5 92 0
19 92 -93 0
-19 -92 -93 0
19 -92 93 0
-19 92 93 0
94 -91 0
94 -93 0
91 93 -94 0
-95 89 0
-95 -94 0
-89 94 95 0
-88 -95 -96 0
88 95 -96 0
-88 95 96 0
88 -95 96 0
83 -96 -97 0
-83 96 -97 0
83 96 97 0
-83 -96 97 0
-79 97 -98 0
79 -97 -98 0
-79 -97 98 0
79 97 98 0
40 7 -24 49 0
2 26 0
25 72 24 -45 0
-37 33 96 34 0
-9 82 -40 -76 46 0
-76 63 95 -69 -78 52 0
-18 55 0
-85 17 -71 -44 0
-24 -28 0
-5 0
-94 -74 87 0
-11 -46 -12 -59 -53 6 0
10 12 0
-54 -8 35 -73 0
37 -39 -36 -66 -91 87 0
32 61 -60 -64 -10 -55 0
55 -83 -46 -84 37 0
-76 -61 48 0
34 -17 -10 96 0
-17 3 -10 -87 0
-54 -25 0
40 69 60 -35 0
-40 33 98 39 84 0
-1 -73 41 77 98 -23 0
80 -72 -31 0
96 46 -59 0
-45 15 16 3 0
-85 97 32 26 -11 0
-93 54 11 73 -79 -75 0
94 75 0
-79 24 -94 0
40 -88 0
18 -22 77 80 42 0
-31 42 0
39 -82 46 0
63 -41 0
18 -35 32 -97 0
35 -52 -27 -4 -89 0
-16 82 88 0
-1 34 79 80 50 0
-49 -67 97 27 -69 0
-85 -55 91 0
91 -80 15 -75 -3 12 0
-57 3 9 31 0
69 -64 63 52 4 0
37 -96 93 13 41 10 0
72 94 0
-11 -72 0
9 -72 -23 0
11 26 -10 0
49 75 -3 -74 36 45 0
72 -25 0
-48 14 -47 4 75 0
-39 -34 0
25 28 80 -75 -51 0
68 -78 -86 -71 58 89 0
-89 -71 0
98 0
